p cnf 24 57
a 19 3 0
e 1 2 4 5 6 7 8 9 10 11 12 13 14 15 16 17 18 20 21 22 23 24 0
3 1 0
3 -2 0
-1 2 -3 0
6 4 0
6 5 0
-4 -5 -6 0
3 -6 -7 0
-3 6 -7 0
3 6 7 0
-3 -6 7 0
10 9 0
10 2 0
-9 -2 -10 0
11 -10 0
11 -4 0
10 4 -11 0
12 11 0
12 5 0
-11 -5 -12 0
13 -8 0
13 -12 0
8 12 -13 0
14 7 0
14 13 0
-7 -13 -14 0
-15 1 0
-15 -4 0
-1 4 15 0
15 -16 -17 0
-15 16 -17 0
15 16 17 0
-15 -16 17 0
-19 18 0
-19 -5 0
-18 5 19 0
-20 -18 0
-20 -19 0
18 19 20 0
-17 -20 -21 0
17 20 -21 0
-17 20 21 0
17 -20 21 0
22 9 0
22 15 0
-9 -15 -22 0
-23 21 0
-23 22 0
-21 -22 23 0
-24 -14 0
-24 23 0
14 -23 24 0
12 -10 3 -23 16 0
21 23 15 19 7 -10 -16 -3 0
10 -7 -5 18 -24 0
-2 11 -10 -3 15 -24 5 0
-9 -22 6 -8 7 4 0
24 0
